
;this file is automatically generated: Tue Feb 07 17:46:40 GMT 2017

;declarations generated

(declare-fun Gender ( Int) Int )
(declare-fun k062ff70d_ddc3_49ae_b164_1a4e2f764fa7 () Int )
(declare-fun rel_d22487ce_8253_41f6_a36c_08ca0450d365_Admit ( Int Int) Bool )
(declare-fun oclExcludes ( Int Int) Bool )
(declare-fun type_fae2390e_cb81_4eed_aa56_c941c342c9d7_Staff ( Int) Bool )
(declare-fun k6f5d127e_faaf_4019_8251_61fd0e81764f () Int )
(declare-fun k889864a5_8081_4b38_89db_0d1143a2a59a () Int )
(declare-fun aux12 () Int )
(declare-fun aux11 () Int )
(declare-fun aux10 () Int )
(declare-fun oclSelect ( Int Bool) Int )
(declare-fun patient_accident ( Int) Bool )
(declare-fun obj_72ee61de_c84d_49ce_a1cc_23efe869c767 ( Int) Int )
(declare-fun Cardinality ( Int) Int )
(declare-fun ae_department_capacity ( Int) Int )
(declare-fun type_586751bf_02f0_4447_b34d_f1745a267d87_Porter ( Int) Bool )
(declare-fun k18487c6be_af18_4f9a_a080_4a923eac332a () Int )
(declare-fun type_50feb137_a335_4a36_9c17_f4dd43174de8_Triage_Staff ( Int) Bool )
(declare-fun type_3e31ee05_ee32_4e6e_a2fc_b792ecd65e54_Nurse ( Int) Bool )
(declare-fun triage_staff_triageno ( Int) Int )
(declare-fun type_2f0aa024_41e1_4d75_bb6c_837ce5552722_Technicians ( Int) Bool )
(declare-fun type_a13e6697_a3f5_458c_b935_cc85f75703ec_People ( Int) Bool )
(declare-fun ka7fb37ae_ac9d_44a7_896d_d786114f87dd () Int )
(declare-fun Tech_Speciality ( Int) Int )
(declare-fun staff_id ( Int) Int )
(declare-fun ae_department_size ( Int) Int )
(declare-fun type_d5ad5b3e_2dd6_4914_bf64_5a07e9037dec_Departments ( Int) Bool )
(declare-fun k90b83043_bd82_408a_8fb3_b9af6b07c17c () Int )
(declare-fun rel_20a33af1_96af_42fd_96e3_c499dd9fa6eb_WorkFor ( Int Int) Bool )
(declare-fun doctor_pager ( Int) Int )
(declare-fun staff_triagestaff ( Int) Bool )
(declare-fun container_ ( Int) Int )
(declare-fun Doc_Speciality ( Int) Int )
(declare-fun type_5ad401f2_319a_4a84_847d_1b46be556f37_Doctor ( Int) Bool )
(declare-fun k2aa133493_da04_4dc9_9120_52b9bf3d54b8 () Int )
(declare-fun type_7602fe5b_96eb_4423_ac8c_985837b59bbc_AE_Department ( Int) Bool )
(declare-fun type_93187c87_d63d_459c_83be_ef1502c14355_Receptionist ( Int) Bool )
(declare-fun rel_b9fa645c_3565_414e_a701_647b4303f20a_Consisting ( Int Int) Bool )
(declare-fun type_654b4a79_c3b2_4930_8c44_712c5e7f3677_Hospital ( Int) Bool )
(declare-fun k6ec11e84_58ab_4d41_9266_877db35d149c () Int )
(declare-fun nurse_pager ( Int) Int )
(declare-fun k00400fde_0a5e_434b_beab_240ca0d0ef6f () Int )
(declare-fun oclIncludes ( Int Int) Bool )
(declare-fun rel_d5373f7b_a874_4e5c_8561_20f69a7dc51d_Checks ( Int Int) Bool )
(declare-fun type_fce8bbcd_fb41_4361_9df8_1e59beb566cd_Patient ( Int) Bool )
(declare-fun Triage_Speciality ( Int) Int )
(declare-fun aux1 () Int )
(declare-fun aux0 () Int )
(declare-fun aux3 () Int )
(declare-fun aux2 () Int )
(declare-fun k55b2b3de_89b0_48be_b9c4_efbd1aa48272 () Int )
(declare-fun technicians_pager ( Int) Int )
(declare-fun aux9 () Int )
(declare-fun aux8 () Int )
(declare-fun aux5 () Int )
(declare-fun aux4 () Int )
(declare-fun aux7 () Int )
(declare-fun aux6 () Int )
(declare-fun Patient_Status ( Int) Int )
(declare-fun patient_assigned ( Int) Bool )
(declare-fun ObjAt ( Int Int) Int )
(declare-fun hospital_phone ( Int) Int )

;formula(s) generated
(assert (forall ((p Int)) (=> ( type_5ad401f2_319a_4a84_847d_1b46be556f37_Doctor p )  (and (>= ( Doc_Speciality ( obj_72ee61de_c84d_49ce_a1cc_23efe869c767 p )  )  0) (<= ( Doc_Speciality ( obj_72ee61de_c84d_49ce_a1cc_23efe869c767 p )  )  8)))))
(assert (forall ((p Int)) (=> ( type_fce8bbcd_fb41_4361_9df8_1e59beb566cd_Patient p )  (and (>= ( Patient_Status ( obj_72ee61de_c84d_49ce_a1cc_23efe869c767 p )  )  0) (<= ( Patient_Status ( obj_72ee61de_c84d_49ce_a1cc_23efe869c767 p )  )  3)))))
(assert (forall ((p Int)) (=> ( type_a13e6697_a3f5_458c_b935_cc85f75703ec_People p )  (and (>= ( Gender ( obj_72ee61de_c84d_49ce_a1cc_23efe869c767 p )  )  0) (<= ( Gender ( obj_72ee61de_c84d_49ce_a1cc_23efe869c767 p )  )  1)))))
(assert (forall ((p Int)) (=> ( type_2f0aa024_41e1_4d75_bb6c_837ce5552722_Technicians p )  (and (>= ( Tech_Speciality ( obj_72ee61de_c84d_49ce_a1cc_23efe869c767 p )  )  0) (<= ( Tech_Speciality ( obj_72ee61de_c84d_49ce_a1cc_23efe869c767 p )  )  2)))))
(assert (forall ((p Int)) (=> ( type_50feb137_a335_4a36_9c17_f4dd43174de8_Triage_Staff p )  (and (>= ( Triage_Speciality ( obj_72ee61de_c84d_49ce_a1cc_23efe869c767 p )  )  0) (<= ( Triage_Speciality ( obj_72ee61de_c84d_49ce_a1cc_23efe869c767 p )  )  2)))))
(assert (and (>= aux0 0) (<= aux0 1)))
(assert (or (or (forall ((x Int)(y Int)) (=> (and ( rel_d22487ce_8253_41f6_a36c_08ca0450d365_Admit ( obj_72ee61de_c84d_49ce_a1cc_23efe869c767 x )   ( obj_72ee61de_c84d_49ce_a1cc_23efe869c767 y )  )  (and (and ( type_7602fe5b_96eb_4423_ac8c_985837b59bbc_AE_Department x )  ( type_d5ad5b3e_2dd6_4914_bf64_5a07e9037dec_Departments x ) ) (and ( type_fce8bbcd_fb41_4361_9df8_1e59beb566cd_Patient y )  ( type_a13e6697_a3f5_458c_b935_cc85f75703ec_People y ) ))) (or (or (or (= (* ( Cardinality ( container_ x )  )  0) (* ( Cardinality ( container_ y )  )  1)) (and (= (* ( Cardinality ( container_ y )  )  1) (* ( Cardinality ( container_ x )  )  k00400fde_0a5e_434b_beab_240ca0d0ef6f)) (>= k00400fde_0a5e_434b_beab_240ca0d0ef6f 0))) (= (* ( Cardinality ( container_ x )  )  0) (* ( Cardinality ( container_ y )  )  1))) (and (= (* ( Cardinality ( container_ y )  )  1) (* ( Cardinality ( container_ x )  )  k6f5d127e_faaf_4019_8251_61fd0e81764f)) (>= k6f5d127e_faaf_4019_8251_61fd0e81764f 0))))) (and (= aux0 1) true)) (and (= aux0 0) false)))
(assert (forall ((x Int)(y Int)) (=> (and ( rel_d22487ce_8253_41f6_a36c_08ca0450d365_Admit ( obj_72ee61de_c84d_49ce_a1cc_23efe869c767 x )   ( obj_72ee61de_c84d_49ce_a1cc_23efe869c767 y )  )  (and (and ( type_7602fe5b_96eb_4423_ac8c_985837b59bbc_AE_Department x )  ( type_d5ad5b3e_2dd6_4914_bf64_5a07e9037dec_Departments x ) ) (and ( type_fce8bbcd_fb41_4361_9df8_1e59beb566cd_Patient y )  ( type_a13e6697_a3f5_458c_b935_cc85f75703ec_People y ) ))) (or (or (or (= (* ( Cardinality ( container_ x )  )  0) (* ( Cardinality ( container_ y )  )  1)) (and (= (* ( Cardinality ( container_ y )  )  1) (* ( Cardinality ( container_ x )  )  k00400fde_0a5e_434b_beab_240ca0d0ef6f)) (>= k00400fde_0a5e_434b_beab_240ca0d0ef6f 0))) (= (* ( Cardinality ( container_ x )  )  0) (* ( Cardinality ( container_ y )  )  1))) (and (= (* ( Cardinality ( container_ y )  )  1) (* ( Cardinality ( container_ x )  )  k6f5d127e_faaf_4019_8251_61fd0e81764f)) (>= k6f5d127e_faaf_4019_8251_61fd0e81764f 0))))))
(assert (and (>= aux1 0) (<= aux1 1)))
(assert (or (or (forall ((x Int)(y Int)) (=> (and ( rel_d5373f7b_a874_4e5c_8561_20f69a7dc51d_Checks ( obj_72ee61de_c84d_49ce_a1cc_23efe869c767 x )   ( obj_72ee61de_c84d_49ce_a1cc_23efe869c767 y )  )  (and (and (and ( type_50feb137_a335_4a36_9c17_f4dd43174de8_Triage_Staff x )  ( type_fae2390e_cb81_4eed_aa56_c941c342c9d7_Staff x ) ) ( type_a13e6697_a3f5_458c_b935_cc85f75703ec_People x ) ) (and ( type_fce8bbcd_fb41_4361_9df8_1e59beb566cd_Patient y )  ( type_a13e6697_a3f5_458c_b935_cc85f75703ec_People y ) ))) (or (or (or (= (* ( Cardinality ( container_ x )  )  0) (* ( Cardinality ( container_ y )  )  0)) (and (= (* ( Cardinality ( container_ y )  )  0) (* ( Cardinality ( container_ x )  )  k062ff70d_ddc3_49ae_b164_1a4e2f764fa7)) (>= k062ff70d_ddc3_49ae_b164_1a4e2f764fa7 0))) (and (= (* ( Cardinality ( container_ x )  )  0) (* ( Cardinality ( container_ y )  )  ka7fb37ae_ac9d_44a7_896d_d786114f87dd)) (>= ka7fb37ae_ac9d_44a7_896d_d786114f87dd 0))) (and (= (* ( Cardinality ( container_ x )  )  k18487c6be_af18_4f9a_a080_4a923eac332a) (* ( Cardinality ( container_ y )  )  k2aa133493_da04_4dc9_9120_52b9bf3d54b8)) (and (>= k18487c6be_af18_4f9a_a080_4a923eac332a 0) (>= k2aa133493_da04_4dc9_9120_52b9bf3d54b8 0)))))) (and (= aux1 1) true)) (and (= aux1 0) false)))
(assert (forall ((x Int)(y Int)) (=> (and ( rel_d5373f7b_a874_4e5c_8561_20f69a7dc51d_Checks ( obj_72ee61de_c84d_49ce_a1cc_23efe869c767 x )   ( obj_72ee61de_c84d_49ce_a1cc_23efe869c767 y )  )  (and (and (and ( type_50feb137_a335_4a36_9c17_f4dd43174de8_Triage_Staff x )  ( type_fae2390e_cb81_4eed_aa56_c941c342c9d7_Staff x ) ) ( type_a13e6697_a3f5_458c_b935_cc85f75703ec_People x ) ) (and ( type_fce8bbcd_fb41_4361_9df8_1e59beb566cd_Patient y )  ( type_a13e6697_a3f5_458c_b935_cc85f75703ec_People y ) ))) (or (or (or (= (* ( Cardinality ( container_ x )  )  0) (* ( Cardinality ( container_ y )  )  0)) (and (= (* ( Cardinality ( container_ y )  )  0) (* ( Cardinality ( container_ x )  )  k062ff70d_ddc3_49ae_b164_1a4e2f764fa7)) (>= k062ff70d_ddc3_49ae_b164_1a4e2f764fa7 0))) (and (= (* ( Cardinality ( container_ x )  )  0) (* ( Cardinality ( container_ y )  )  ka7fb37ae_ac9d_44a7_896d_d786114f87dd)) (>= ka7fb37ae_ac9d_44a7_896d_d786114f87dd 0))) (and (= (* ( Cardinality ( container_ x )  )  k18487c6be_af18_4f9a_a080_4a923eac332a) (* ( Cardinality ( container_ y )  )  k2aa133493_da04_4dc9_9120_52b9bf3d54b8)) (and (>= k18487c6be_af18_4f9a_a080_4a923eac332a 0) (>= k2aa133493_da04_4dc9_9120_52b9bf3d54b8 0)))))))
(assert (and (>= aux2 0) (<= aux2 1)))
(assert (or (or (forall ((x Int)(y Int)) (=> (and ( rel_b9fa645c_3565_414e_a701_647b4303f20a_Consisting ( obj_72ee61de_c84d_49ce_a1cc_23efe869c767 x )   ( obj_72ee61de_c84d_49ce_a1cc_23efe869c767 y )  )  (and ( type_654b4a79_c3b2_4930_8c44_712c5e7f3677_Hospital x )  ( type_d5ad5b3e_2dd6_4914_bf64_5a07e9037dec_Departments y ) )) (or (or (or (= (* ( Cardinality ( container_ x )  )  0) (* ( Cardinality ( container_ y )  )  1)) (and (= (* ( Cardinality ( container_ y )  )  1) (* ( Cardinality ( container_ x )  )  k889864a5_8081_4b38_89db_0d1143a2a59a)) (>= k889864a5_8081_4b38_89db_0d1143a2a59a 0))) (= (* ( Cardinality ( container_ x )  )  0) (* ( Cardinality ( container_ y )  )  1))) (and (= (* ( Cardinality ( container_ y )  )  1) (* ( Cardinality ( container_ x )  )  k90b83043_bd82_408a_8fb3_b9af6b07c17c)) (>= k90b83043_bd82_408a_8fb3_b9af6b07c17c 0))))) (and (= aux2 1) true)) (and (= aux2 0) false)))
(assert (forall ((x Int)(y Int)) (=> (and ( rel_b9fa645c_3565_414e_a701_647b4303f20a_Consisting ( obj_72ee61de_c84d_49ce_a1cc_23efe869c767 x )   ( obj_72ee61de_c84d_49ce_a1cc_23efe869c767 y )  )  (and ( type_654b4a79_c3b2_4930_8c44_712c5e7f3677_Hospital x )  ( type_d5ad5b3e_2dd6_4914_bf64_5a07e9037dec_Departments y ) )) (or (or (or (= (* ( Cardinality ( container_ x )  )  0) (* ( Cardinality ( container_ y )  )  1)) (and (= (* ( Cardinality ( container_ y )  )  1) (* ( Cardinality ( container_ x )  )  k889864a5_8081_4b38_89db_0d1143a2a59a)) (>= k889864a5_8081_4b38_89db_0d1143a2a59a 0))) (= (* ( Cardinality ( container_ x )  )  0) (* ( Cardinality ( container_ y )  )  1))) (and (= (* ( Cardinality ( container_ y )  )  1) (* ( Cardinality ( container_ x )  )  k90b83043_bd82_408a_8fb3_b9af6b07c17c)) (>= k90b83043_bd82_408a_8fb3_b9af6b07c17c 0))))))
(assert (exists ((x Int)(y Int)) (and (and ( rel_20a33af1_96af_42fd_96e3_c499dd9fa6eb_WorkFor ( obj_72ee61de_c84d_49ce_a1cc_23efe869c767 x )   ( obj_72ee61de_c84d_49ce_a1cc_23efe869c767 y )  )  (and (and ( type_7602fe5b_96eb_4423_ac8c_985837b59bbc_AE_Department x )  ( type_d5ad5b3e_2dd6_4914_bf64_5a07e9037dec_Departments x ) ) (and ( type_fae2390e_cb81_4eed_aa56_c941c342c9d7_Staff y )  ( type_a13e6697_a3f5_458c_b935_cc85f75703ec_People y ) ))) (>= ( Cardinality ( container_ x )  )  1))))
(assert (and (>= aux3 0) (<= aux3 1)))
(assert (or (or (forall ((x Int)(y Int)) (=> (and ( rel_20a33af1_96af_42fd_96e3_c499dd9fa6eb_WorkFor ( obj_72ee61de_c84d_49ce_a1cc_23efe869c767 x )   ( obj_72ee61de_c84d_49ce_a1cc_23efe869c767 y )  )  (and (and ( type_7602fe5b_96eb_4423_ac8c_985837b59bbc_AE_Department x )  ( type_d5ad5b3e_2dd6_4914_bf64_5a07e9037dec_Departments x ) ) (and ( type_fae2390e_cb81_4eed_aa56_c941c342c9d7_Staff y )  ( type_a13e6697_a3f5_458c_b935_cc85f75703ec_People y ) ))) (or (or (or (= (* ( Cardinality ( container_ x )  )  1) (* ( Cardinality ( container_ y )  )  1)) (and (= (* ( Cardinality ( container_ y )  )  1) (* ( Cardinality ( container_ x )  )  k6ec11e84_58ab_4d41_9266_877db35d149c)) (>= k6ec11e84_58ab_4d41_9266_877db35d149c 0))) (= (* ( Cardinality ( container_ x )  )  1) (* ( Cardinality ( container_ y )  )  1))) (and (= (* ( Cardinality ( container_ y )  )  1) (* ( Cardinality ( container_ x )  )  k55b2b3de_89b0_48be_b9c4_efbd1aa48272)) (>= k55b2b3de_89b0_48be_b9c4_efbd1aa48272 0))))) (and (= aux3 1) true)) (and (= aux3 0) false)))
(assert (forall ((x Int)(y Int)) (=> (and ( rel_20a33af1_96af_42fd_96e3_c499dd9fa6eb_WorkFor ( obj_72ee61de_c84d_49ce_a1cc_23efe869c767 x )   ( obj_72ee61de_c84d_49ce_a1cc_23efe869c767 y )  )  (and (and ( type_7602fe5b_96eb_4423_ac8c_985837b59bbc_AE_Department x )  ( type_d5ad5b3e_2dd6_4914_bf64_5a07e9037dec_Departments x ) ) (and ( type_fae2390e_cb81_4eed_aa56_c941c342c9d7_Staff y )  ( type_a13e6697_a3f5_458c_b935_cc85f75703ec_People y ) ))) (or (or (or (= (* ( Cardinality ( container_ x )  )  1) (* ( Cardinality ( container_ y )  )  1)) (and (= (* ( Cardinality ( container_ y )  )  1) (* ( Cardinality ( container_ x )  )  k6ec11e84_58ab_4d41_9266_877db35d149c)) (>= k6ec11e84_58ab_4d41_9266_877db35d149c 0))) (= (* ( Cardinality ( container_ x )  )  1) (* ( Cardinality ( container_ y )  )  1))) (and (= (* ( Cardinality ( container_ y )  )  1) (* ( Cardinality ( container_ x )  )  k55b2b3de_89b0_48be_b9c4_efbd1aa48272)) (>= k55b2b3de_89b0_48be_b9c4_efbd1aa48272 0))))))
(assert (and (>= aux4 0) (<= aux4 1)))
(assert (or (or (and (forall ((v Int)) (=> (and ( type_7602fe5b_96eb_4423_ac8c_985837b59bbc_AE_Department v )  ( type_d5ad5b3e_2dd6_4914_bf64_5a07e9037dec_Departments v ) ) (> ( ae_department_size ( obj_72ee61de_c84d_49ce_a1cc_23efe869c767 v )  )  0))) (forall ((v Int)) (=> (and ( type_7602fe5b_96eb_4423_ac8c_985837b59bbc_AE_Department v )  ( type_d5ad5b3e_2dd6_4914_bf64_5a07e9037dec_Departments v ) ) (> ( ae_department_capacity ( obj_72ee61de_c84d_49ce_a1cc_23efe869c767 v )  )  0)))) (and (= aux4 1) true)) (and (= aux4 0) false)))
(assert (and (forall ((v Int)) (=> (and ( type_7602fe5b_96eb_4423_ac8c_985837b59bbc_AE_Department v )  ( type_d5ad5b3e_2dd6_4914_bf64_5a07e9037dec_Departments v ) ) (> ( ae_department_size ( obj_72ee61de_c84d_49ce_a1cc_23efe869c767 v )  )  0))) (forall ((v Int)) (=> (and ( type_7602fe5b_96eb_4423_ac8c_985837b59bbc_AE_Department v )  ( type_d5ad5b3e_2dd6_4914_bf64_5a07e9037dec_Departments v ) ) (> ( ae_department_capacity ( obj_72ee61de_c84d_49ce_a1cc_23efe869c767 v )  )  0)))))
(assert (and (>= aux5 0) (<= aux5 1)))
(assert (or (or (forall ((s Int)) (=> (and ( type_7602fe5b_96eb_4423_ac8c_985837b59bbc_AE_Department s )  ( type_d5ad5b3e_2dd6_4914_bf64_5a07e9037dec_Departments s ) ) (exists ((v Int)) (and (and ( type_fae2390e_cb81_4eed_aa56_c941c342c9d7_Staff v )  ( type_a13e6697_a3f5_458c_b935_cc85f75703ec_People v ) ) ( rel_20a33af1_96af_42fd_96e3_c499dd9fa6eb_WorkFor ( obj_72ee61de_c84d_49ce_a1cc_23efe869c767 s )   ( obj_72ee61de_c84d_49ce_a1cc_23efe869c767 v )  ) )))) (and (= aux5 1) true)) (and (= aux5 0) false)))
(assert (forall ((s Int)) (=> (and ( type_7602fe5b_96eb_4423_ac8c_985837b59bbc_AE_Department s )  ( type_d5ad5b3e_2dd6_4914_bf64_5a07e9037dec_Departments s ) ) (exists ((v Int)) (and (and ( type_fae2390e_cb81_4eed_aa56_c941c342c9d7_Staff v )  ( type_a13e6697_a3f5_458c_b935_cc85f75703ec_People v ) ) ( rel_20a33af1_96af_42fd_96e3_c499dd9fa6eb_WorkFor ( obj_72ee61de_c84d_49ce_a1cc_23efe869c767 s )   ( obj_72ee61de_c84d_49ce_a1cc_23efe869c767 v )  ) )))))
(assert (and (>= aux6 0) (<= aux6 1)))
(assert (or (or (forall ((p Int)) (=> (and ( type_fce8bbcd_fb41_4361_9df8_1e59beb566cd_Patient p )  ( type_a13e6697_a3f5_458c_b935_cc85f75703ec_People p ) ) (=> (or (= ( Patient_Status ( obj_72ee61de_c84d_49ce_a1cc_23efe869c767 p )  )  0) (= ( Patient_Status ( obj_72ee61de_c84d_49ce_a1cc_23efe869c767 p )  )  1)) (= ( patient_assigned ( obj_72ee61de_c84d_49ce_a1cc_23efe869c767 p )  )  true)))) (and (= aux6 1) true)) (and (= aux6 0) false)))
(assert (forall ((p Int)) (=> (and ( type_fce8bbcd_fb41_4361_9df8_1e59beb566cd_Patient p )  ( type_a13e6697_a3f5_458c_b935_cc85f75703ec_People p ) ) (=> (or (= ( Patient_Status ( obj_72ee61de_c84d_49ce_a1cc_23efe869c767 p )  )  0) (= ( Patient_Status ( obj_72ee61de_c84d_49ce_a1cc_23efe869c767 p )  )  1)) (= ( patient_assigned ( obj_72ee61de_c84d_49ce_a1cc_23efe869c767 p )  )  true)))))
(assert (and (>= aux7 0) (<= aux7 1)))
(assert (or (or (forall ((p Int)) (=> (and ( type_fce8bbcd_fb41_4361_9df8_1e59beb566cd_Patient p )  ( type_a13e6697_a3f5_458c_b935_cc85f75703ec_People p ) ) (exists ((v Int)) (and (and (and ( type_50feb137_a335_4a36_9c17_f4dd43174de8_Triage_Staff v )  ( type_fae2390e_cb81_4eed_aa56_c941c342c9d7_Staff v ) ) ( type_a13e6697_a3f5_458c_b935_cc85f75703ec_People v ) ) ( rel_d5373f7b_a874_4e5c_8561_20f69a7dc51d_Checks ( obj_72ee61de_c84d_49ce_a1cc_23efe869c767 p )   ( obj_72ee61de_c84d_49ce_a1cc_23efe869c767 v )  ) )))) (and (= aux7 1) true)) (and (= aux7 0) false)))
(assert (forall ((p Int)) (=> (and ( type_fce8bbcd_fb41_4361_9df8_1e59beb566cd_Patient p )  ( type_a13e6697_a3f5_458c_b935_cc85f75703ec_People p ) ) (exists ((v Int)) (and (and (and ( type_50feb137_a335_4a36_9c17_f4dd43174de8_Triage_Staff v )  ( type_fae2390e_cb81_4eed_aa56_c941c342c9d7_Staff v ) ) ( type_a13e6697_a3f5_458c_b935_cc85f75703ec_People v ) ) ( rel_d5373f7b_a874_4e5c_8561_20f69a7dc51d_Checks ( obj_72ee61de_c84d_49ce_a1cc_23efe869c767 p )   ( obj_72ee61de_c84d_49ce_a1cc_23efe869c767 v )  ) )))))
(assert (and (>= aux8 0) (<= aux8 1)))
(assert (or (or (forall ((s1 Int)(s2 Int)) (=> (and (and ( type_fae2390e_cb81_4eed_aa56_c941c342c9d7_Staff s1 )  ( type_a13e6697_a3f5_458c_b935_cc85f75703ec_People s1 ) ) (and ( type_fae2390e_cb81_4eed_aa56_c941c342c9d7_Staff s2 )  ( type_a13e6697_a3f5_458c_b935_cc85f75703ec_People s2 ) )) (=> (not (= ( obj_72ee61de_c84d_49ce_a1cc_23efe869c767 s1 )  ( obj_72ee61de_c84d_49ce_a1cc_23efe869c767 s2 ) ) ) (not (= ( staff_id ( obj_72ee61de_c84d_49ce_a1cc_23efe869c767 s1 )  )  ( staff_id ( obj_72ee61de_c84d_49ce_a1cc_23efe869c767 s2 )  ) ) )))) (and (= aux8 1) true)) (and (= aux8 0) false)))
(assert (forall ((s1 Int)(s2 Int)) (=> (and (and ( type_fae2390e_cb81_4eed_aa56_c941c342c9d7_Staff s1 )  ( type_a13e6697_a3f5_458c_b935_cc85f75703ec_People s1 ) ) (and ( type_fae2390e_cb81_4eed_aa56_c941c342c9d7_Staff s2 )  ( type_a13e6697_a3f5_458c_b935_cc85f75703ec_People s2 ) )) (=> (not (= ( obj_72ee61de_c84d_49ce_a1cc_23efe869c767 s1 )  ( obj_72ee61de_c84d_49ce_a1cc_23efe869c767 s2 ) ) ) (not (= ( staff_id ( obj_72ee61de_c84d_49ce_a1cc_23efe869c767 s1 )  )  ( staff_id ( obj_72ee61de_c84d_49ce_a1cc_23efe869c767 s2 )  ) ) )))))
(assert (and (>= aux9 0) (<= aux9 1)))
(assert (or (or (exists ((s Int)) (and (and ( type_fae2390e_cb81_4eed_aa56_c941c342c9d7_Staff s )  ( type_a13e6697_a3f5_458c_b935_cc85f75703ec_People s ) ) (= ( staff_triagestaff ( obj_72ee61de_c84d_49ce_a1cc_23efe869c767 s )  )  true))) (and (= aux9 1) true)) (and (= aux9 0) false)))
(assert (exists ((s Int)) (and (and ( type_fae2390e_cb81_4eed_aa56_c941c342c9d7_Staff s )  ( type_a13e6697_a3f5_458c_b935_cc85f75703ec_People s ) ) (= ( staff_triagestaff ( obj_72ee61de_c84d_49ce_a1cc_23efe869c767 s )  )  true))))
(assert (and (>= aux10 0) (<= aux10 1)))
(assert (or (or (exists ((s Int)) (and (and (and ( type_50feb137_a335_4a36_9c17_f4dd43174de8_Triage_Staff s )  ( type_fae2390e_cb81_4eed_aa56_c941c342c9d7_Staff s ) ) ( type_a13e6697_a3f5_458c_b935_cc85f75703ec_People s ) ) (= ( Triage_Speciality ( obj_72ee61de_c84d_49ce_a1cc_23efe869c767 s )  )  0))) (and (= aux10 1) true)) (and (= aux10 0) false)))
(assert (exists ((s Int)) (and (and (and ( type_50feb137_a335_4a36_9c17_f4dd43174de8_Triage_Staff s )  ( type_fae2390e_cb81_4eed_aa56_c941c342c9d7_Staff s ) ) ( type_a13e6697_a3f5_458c_b935_cc85f75703ec_People s ) ) (= ( Triage_Speciality ( obj_72ee61de_c84d_49ce_a1cc_23efe869c767 s )  )  0))))
(assert (and (>= aux11 0) (<= aux11 1)))
(assert (or (or (exists ((s Int)) (and (and (and ( type_50feb137_a335_4a36_9c17_f4dd43174de8_Triage_Staff s )  ( type_fae2390e_cb81_4eed_aa56_c941c342c9d7_Staff s ) ) ( type_a13e6697_a3f5_458c_b935_cc85f75703ec_People s ) ) (= ( Triage_Speciality ( obj_72ee61de_c84d_49ce_a1cc_23efe869c767 s )  )  1))) (and (= aux11 1) true)) (and (= aux11 0) false)))
(assert (exists ((s Int)) (and (and (and ( type_50feb137_a335_4a36_9c17_f4dd43174de8_Triage_Staff s )  ( type_fae2390e_cb81_4eed_aa56_c941c342c9d7_Staff s ) ) ( type_a13e6697_a3f5_458c_b935_cc85f75703ec_People s ) ) (= ( Triage_Speciality ( obj_72ee61de_c84d_49ce_a1cc_23efe869c767 s )  )  1))))
(assert (and (>= aux12 0) (<= aux12 1)))
(assert (or (or (exists ((s Int)) (and (and (and ( type_50feb137_a335_4a36_9c17_f4dd43174de8_Triage_Staff s )  ( type_fae2390e_cb81_4eed_aa56_c941c342c9d7_Staff s ) ) ( type_a13e6697_a3f5_458c_b935_cc85f75703ec_People s ) ) (= ( Triage_Speciality ( obj_72ee61de_c84d_49ce_a1cc_23efe869c767 s )  )  2))) (and (= aux12 1) true)) (and (= aux12 0) false)))
(assert (exists ((s Int)) (and (and (and ( type_50feb137_a335_4a36_9c17_f4dd43174de8_Triage_Staff s )  ( type_fae2390e_cb81_4eed_aa56_c941c342c9d7_Staff s ) ) ( type_a13e6697_a3f5_458c_b935_cc85f75703ec_People s ) ) (= ( Triage_Speciality ( obj_72ee61de_c84d_49ce_a1cc_23efe869c767 s )  )  2))))
(assert (exists ((o Int)) (and ( type_7602fe5b_96eb_4423_ac8c_985837b59bbc_AE_Department ( obj_72ee61de_c84d_49ce_a1cc_23efe869c767 o )  )  ( type_d5ad5b3e_2dd6_4914_bf64_5a07e9037dec_Departments ( obj_72ee61de_c84d_49ce_a1cc_23efe869c767 o )  ) )))
(assert (exists ((o Int)) ( type_d5ad5b3e_2dd6_4914_bf64_5a07e9037dec_Departments ( obj_72ee61de_c84d_49ce_a1cc_23efe869c767 o )  ) ))
(assert (exists ((o Int)) (and (and (and ( type_5ad401f2_319a_4a84_847d_1b46be556f37_Doctor ( obj_72ee61de_c84d_49ce_a1cc_23efe869c767 o )  )  ( type_50feb137_a335_4a36_9c17_f4dd43174de8_Triage_Staff ( obj_72ee61de_c84d_49ce_a1cc_23efe869c767 o )  ) ) ( type_fae2390e_cb81_4eed_aa56_c941c342c9d7_Staff ( obj_72ee61de_c84d_49ce_a1cc_23efe869c767 o )  ) ) ( type_a13e6697_a3f5_458c_b935_cc85f75703ec_People ( obj_72ee61de_c84d_49ce_a1cc_23efe869c767 o )  ) )))
(assert (exists ((o Int)) ( type_654b4a79_c3b2_4930_8c44_712c5e7f3677_Hospital ( obj_72ee61de_c84d_49ce_a1cc_23efe869c767 o )  ) ))
(assert (exists ((o Int)) (and (and (and ( type_3e31ee05_ee32_4e6e_a2fc_b792ecd65e54_Nurse ( obj_72ee61de_c84d_49ce_a1cc_23efe869c767 o )  )  ( type_50feb137_a335_4a36_9c17_f4dd43174de8_Triage_Staff ( obj_72ee61de_c84d_49ce_a1cc_23efe869c767 o )  ) ) ( type_fae2390e_cb81_4eed_aa56_c941c342c9d7_Staff ( obj_72ee61de_c84d_49ce_a1cc_23efe869c767 o )  ) ) ( type_a13e6697_a3f5_458c_b935_cc85f75703ec_People ( obj_72ee61de_c84d_49ce_a1cc_23efe869c767 o )  ) )))
(assert (exists ((o Int)) (and ( type_fce8bbcd_fb41_4361_9df8_1e59beb566cd_Patient ( obj_72ee61de_c84d_49ce_a1cc_23efe869c767 o )  )  ( type_a13e6697_a3f5_458c_b935_cc85f75703ec_People ( obj_72ee61de_c84d_49ce_a1cc_23efe869c767 o )  ) )))
(assert (exists ((o Int)) ( type_a13e6697_a3f5_458c_b935_cc85f75703ec_People ( obj_72ee61de_c84d_49ce_a1cc_23efe869c767 o )  ) ))
(assert (exists ((o Int)) (and (and ( type_586751bf_02f0_4447_b34d_f1745a267d87_Porter ( obj_72ee61de_c84d_49ce_a1cc_23efe869c767 o )  )  ( type_fae2390e_cb81_4eed_aa56_c941c342c9d7_Staff ( obj_72ee61de_c84d_49ce_a1cc_23efe869c767 o )  ) ) ( type_a13e6697_a3f5_458c_b935_cc85f75703ec_People ( obj_72ee61de_c84d_49ce_a1cc_23efe869c767 o )  ) )))
(assert (exists ((o Int)) (and (and ( type_93187c87_d63d_459c_83be_ef1502c14355_Receptionist ( obj_72ee61de_c84d_49ce_a1cc_23efe869c767 o )  )  ( type_fae2390e_cb81_4eed_aa56_c941c342c9d7_Staff ( obj_72ee61de_c84d_49ce_a1cc_23efe869c767 o )  ) ) ( type_a13e6697_a3f5_458c_b935_cc85f75703ec_People ( obj_72ee61de_c84d_49ce_a1cc_23efe869c767 o )  ) )))
(assert (exists ((o Int)) (and ( type_fae2390e_cb81_4eed_aa56_c941c342c9d7_Staff ( obj_72ee61de_c84d_49ce_a1cc_23efe869c767 o )  )  ( type_a13e6697_a3f5_458c_b935_cc85f75703ec_People ( obj_72ee61de_c84d_49ce_a1cc_23efe869c767 o )  ) )))
(assert (exists ((o Int)) (and (and (and ( type_2f0aa024_41e1_4d75_bb6c_837ce5552722_Technicians ( obj_72ee61de_c84d_49ce_a1cc_23efe869c767 o )  )  ( type_50feb137_a335_4a36_9c17_f4dd43174de8_Triage_Staff ( obj_72ee61de_c84d_49ce_a1cc_23efe869c767 o )  ) ) ( type_fae2390e_cb81_4eed_aa56_c941c342c9d7_Staff ( obj_72ee61de_c84d_49ce_a1cc_23efe869c767 o )  ) ) ( type_a13e6697_a3f5_458c_b935_cc85f75703ec_People ( obj_72ee61de_c84d_49ce_a1cc_23efe869c767 o )  ) )))
(assert (exists ((o Int)) (and (and ( type_50feb137_a335_4a36_9c17_f4dd43174de8_Triage_Staff ( obj_72ee61de_c84d_49ce_a1cc_23efe869c767 o )  )  ( type_fae2390e_cb81_4eed_aa56_c941c342c9d7_Staff ( obj_72ee61de_c84d_49ce_a1cc_23efe869c767 o )  ) ) ( type_a13e6697_a3f5_458c_b935_cc85f75703ec_People ( obj_72ee61de_c84d_49ce_a1cc_23efe869c767 o )  ) )))
(assert (= (+ (+ (+ (+ (+ (+ (+ (+ (+ (+ (+ (+ aux0 aux1) aux2) aux3) aux4) aux5) aux6) aux7) aux8) aux9) aux10) aux11) aux12) 0))

 ;end of formula 